; benchmark generated from python API
(set-info :status unknown)
(declare-fun R () (_ BitVec 32))
(declare-fun rdi () (_ BitVec 32))
(assert
 (let (($x201 (= (_ bv0 32) R)))
 (let ((?x6 ((_ extract 31 0) rdi)))
 (let (($x11 (bvsge (_ bv4 32) ?x6)))
 (let (($x203 (and $x11 $x201)))
 (let (($x41 (bvslt (_ bv4 32) ?x6)))
 (let (($x161 (bvslt (_ bv6 32) ?x6)))
 (let (($x202 (and $x161 $x41 $x201)))
 (let (($x209 (= (_ bv4294967271 32) R)))
 (let (($x45 (bvsge (_ bv6 32) ?x6)))
 (let (($x176 (bvsle (_ bv1 32) ?x6)))
 (let (($x178 (bvsle (_ bv2 32) ?x6)))
 (let (($x181 (bvsle (_ bv3 32) ?x6)))
 (let (($x186 (bvsle (_ bv4 32) ?x6)))
 (let (($x182 (bvsle (_ bv5 32) ?x6)))
 (let (($x40 (bvsgt (_ bv6 32) ?x6)))
 (let (($x210 (and $x40 $x182 $x186 $x181 $x178 $x176 $x45 $x41 $x209)))
 (let (($x206 (= (_ bv4294967266 32) R)))
 (let (($x192 (bvsle (_ bv6 32) ?x6)))
 (let (($x187 (bvsgt (_ bv7 32) ?x6)))
 (let (($x207 (and $x187 $x192 $x182 $x186 $x181 $x178 $x176 $x45 $x41 $x206)))
 (let (($x211 (or $x207 $x210 $x202 $x203)))
 (let ((?x46 (bvmul (_ bv5 32) ?x6)))
 (let (($x199 (= R ?x46)))
 (let (($x200 (and $x45 $x41 $x199)))
 (let (($x204 (or $x200 $x202 $x203)))
 (and $x204 $x211)))))))))))))))))))))))))))
(check-sat)
